33
100
80	1
75	1
74	1
71	1
67	3
66	1
61	1
60	5
59	1
57	1
56	1
55	3
54	1
51	1
50	1
47	2
46	1
44	1
43	1
42	3
41	1
36	1
34	1
33	1
32	1
31	2
30	1
27	2
26	2
24	3
23	2
22	1
21	1
